VARIABLES="X""Y""dispX""dispY""sigmaxx""sigmayy""sigmaxy""ResiX""ResiY""ReX""ReY"
0.5 0 9.97572e-08 0 -19996.3 34470 -357.977 3.65774 0 0.609624 0
0.498292 0.0412897 9.98241e-08 8.35475e-09 -19634 32768 -4372.25 3.64244 0.222848 0.607073 0.0371413
0.493181 0.0822973 9.83026e-08 1.60894e-08 -18577.3 30963.7 -8503.87 3.5697 0.461912 0.59495 0.0769854
0.4847 0.122743 9.64276e-08 2.40867e-08 -16812 29661.2 -12575.2 3.46695 0.712455 0.577825 0.118743
0.472909 0.16235 9.38562e-08 3.23592e-08 -14422.1 27301.4 -16237.6 3.33955 0.973329 0.556591 0.162222
0.457887 0.200848 9.09889e-08 3.9808e-08 -11434.7 24501.7 -19518.9 3.19467 1.22228 0.532446 0.203713
0.439737 0.237974 8.7139e-08 4.75313e-08 -8118.42 20561.1 -21948.9 3.02201 1.48332 0.503668 0.247219
0.418583 0.273474 8.31549e-08 5.45657e-08 -4066.09 17324.8 -24383.5 2.84281 1.72989 0.473802 0.288314
0.39457 0.307106 7.81325e-08 6.12855e-08 -126.02 12803.9 -25529.8 2.63507 1.9755 0.439178 0.329249
0.367862 0.338641 7.28089e-08 6.79344e-08 3513.09 7745.41 -25538.4 2.42525 2.21299 0.404209 0.368831
0.338641 0.367862 6.79344e-08 7.28089e-08 7745.41 3513.09 -25538.4 2.21299 2.42525 0.368831 0.404209
0.307106 0.39457 6.12855e-08 7.81325e-08 12803.9 -126.018 -25529.8 1.97549 2.63507 0.329249 0.439178
0.273474 0.418583 5.45657e-08 8.31549e-08 17324.8 -4066.09 -24383.5 1.72988 2.84281 0.288314 0.473802
0.237974 0.439737 4.75313e-08 8.7139e-08 20561.1 -8118.42 -21948.9 1.48332 3.02201 0.247219 0.503668
0.200848 0.457887 3.9808e-08 9.09889e-08 24501.7 -11434.7 -19518.9 1.22228 3.19468 0.203713 0.532446
0.16235 0.472909 3.23592e-08 9.38562e-08 27301.4 -14422.1 -16237.6 0.973329 3.33955 0.162222 0.556592
0.122743 0.4847 2.40867e-08 9.64276e-08 29661.2 -16812 -12575.2 0.712455 3.46695 0.118742 0.577825
0.0822973 0.493181 1.60894e-08 9.83026e-08 30963.7 -18577.3 -8503.87 0.461912 3.5697 0.0769854 0.594951
0.0412897 0.498292 8.35475e-09 9.98241e-08 32768 -19634 -4372.26 0.222848 3.64244 0.0371414 0.607073
0 0.5 0 9.97572e-08 34470.1 -19996.3 -357.977 0 3.65774 0 0.609624
0.55 0 9.21728e-08 0 -16323.2 28867.6 3.56743 3.56743 0 0.594572 0
0.548462 0.0411016 9.23669e-08 6.93888e-09 -16120.4 28481.5 -3621.9 99.8 6.23834 0.998 0.0623834
0.543857 0.0819732 9.10498e-08 1.38041e-08 -14005.6 27907 -6421.21 97.865 12.7574 0.97865 0.127574
0.53621 0.122387 8.99836e-08 2.11499e-08 -13539.1 26638.9 -9739.64 95.3167 19.4749 0.953167 0.194749
0.525565 0.162115 8.74312e-08 2.70277e-08 -11645.7 25008.5 -12451.3 91.8168 25.2514 0.918168 0.252514
0.511981 0.200938 8.5962e-08 3.3741e-08 -9627.59 22911.7 -15236.4 88.6484 31.4664 0.886484 0.314664
0.495533 0.238636 8.23793e-08 3.99267e-08 -7101.27 20521.8 -17297.2 84.1315 37.3523 0.841315 0.373523
0.476314 0.275 8.0101e-08 4.57657e-08 -4103.32 17956.4 -19534.3 80.3807 43.0944 0.803807 0.430944
0.454431 0.309826 7.58091e-08 5.20532e-08 -1112.5 14375.4 -20489.7 75.3961 49.031 0.753961 0.49031
0.430007 0.342919 7.22178e-08 5.69683e-08 965.334 11859.3 -21970.7 70.7465 54.3954 0.707465 0.543954
0.403179 0.374095 6.72651e-08 6.30576e-08 5604.42 7516.03 -22240.6 65.3282 60.3258 0.653282 0.603258
0.374095 0.403179 6.30576e-08 6.72651e-08 7516.03 5604.43 -22240.6 60.3258 65.3282 0.603258 0.653282
0.342919 0.430007 5.69683e-08 7.22178e-08 11859.3 965.335 -21970.7 54.3954 70.7465 0.543954 0.707465
0.309826 0.454431 5.20532e-08 7.58091e-08 14375.4 -1112.49 -20489.7 49.031 75.3961 0.49031 0.753961
0.275 0.476314 4.57657e-08 8.0101e-08 17956.4 -4103.32 -19534.3 43.0944 80.3807 0.430944 0.803807
0.238636 0.495533 3.99267e-08 8.23793e-08 20521.8 -7101.27 -17297.2 37.3523 84.1315 0.373523 0.841315
0.200938 0.511981 3.3741e-08 8.5962e-08 22911.7 -9627.58 -15236.4 31.4663 88.6484 0.314663 0.886484
0.162115 0.525565 2.70277e-08 8.74312e-08 25008.5 -11645.7 -12451.3 25.2514 91.8169 0.252514 0.918169
0.122387 0.53621 2.11499e-08 8.99836e-08 26638.9 -13539.1 -9739.65 19.4749 95.3167 0.194749 0.953167
0.0819733 0.543857 1.38041e-08 9.10498e-08 27907 -14005.6 -6421.21 12.7574 97.8651 0.127574 0.978651
0.0411016 0.548462 6.93889e-09 9.23669e-08 28481.5 -16120.4 -3621.9 6.23834 99.8001 0.0623834 0.998001
0 0.55 0 9.21728e-08 28867.6 -16323.2 3.56744 0 3.56744 0 0.594573
0.6 0 8.72654e-08 0 -12011.3 25041.3 3.49997 3.49997 0 0.583328 0
0.598601 0.0409454 8.74038e-08 5.86435e-09 -11831.2 25830.2 -2625.85 97.8968 5.75314 0.978968 0.0575314
0.594412 0.0817 8.64147e-08 1.20977e-08 -11148.1 24257 -5420.59 96.0285 11.6783 0.960285 0.116783
0.58745 0.122074 8.52083e-08 1.76814e-08 -10271.6 23781.6 -7545.67 93.996 17.4147 0.93996 0.174147
0.57775 0.161878 8.40173e-08 2.34256e-08 -9011.8 22589.2 -9822.45 91.3077 22.8244 0.913077 0.228244
0.565357 0.200928 8.2197e-08 2.93406e-08 -7498.8 21370.9 -11764.3 88.3164 28.5406 0.883164 0.285406
0.550327 0.239041 7.9672e-08 3.456e-08 -5750.56 19512.4 -13674.6 84.6433 33.8491 0.846433 0.338491
0.532731 0.276039 7.78151e-08 4.02032e-08 -3781.92 17652.2 -15182.2 81.3606 39.1415 0.813606 0.391415
0.512652 0.31175 7.39562e-08 4.5258e-08 -1884.89 15358.5 -16247 76.7395 44.4523 0.767395 0.444523
0.490182 0.346008 7.22559e-08 5.02066e-08 -543.212 13095.4 -17632.8 73.503 49.2644 0.73503 0.492644
0.465427 0.378653 6.69035e-08 5.53778e-08 3585.87 10705.8 -18221.8 67.8537 54.7077 0.678537 0.547077
0.438502 0.409532 6.43329e-08 5.91524e-08 5091.3 7991.77 -18662.6 64.3288 58.8371 0.643288 0.588371
0.409532 0.438502 5.91524e-08 6.43329e-08 7991.77 5091.3 -18662.6 58.8371 64.3288 0.588371 0.643288
0.378653 0.465427 5.53778e-08 6.69035e-08 10705.8 3585.87 -18221.8 54.7077 67.8538 0.547077 0.678538
0.346008 0.490182 5.02066e-08 7.22559e-08 13095.4 -543.211 -17632.8 49.2644 73.503 0.492644 0.73503
0.31175 0.512652 4.5258e-08 7.39562e-08 15358.5 -1884.89 -16247 44.4523 76.7395 0.444523 0.767395
0.276039 0.532731 4.02032e-08 7.78151e-08 17652.2 -3781.92 -15182.2 39.1415 81.3606 0.391415 0.813606
0.239041 0.550327 3.456e-08 7.9672e-08 19512.4 -5750.56 -13674.6 33.8491 84.6433 0.338491 0.846433
0.200928 0.565357 2.93406e-08 8.2197e-08 21370.9 -7498.8 -11764.3 28.5406 88.3164 0.285406 0.883164
0.161878 0.57775 2.34256e-08 8.40173e-08 22589.2 -9011.8 -9822.45 22.8244 91.3078 0.228244 0.913078
0.122074 0.58745 1.76814e-08 8.52083e-08 23781.6 -10271.6 -7545.67 17.4147 93.9961 0.174147 0.939961
0.0817 0.594412 1.20977e-08 8.64147e-08 24257 -11148.1 -5420.59 11.6783 96.0285 0.116783 0.960285
0.0409455 0.598601 5.86436e-09 8.74038e-08 25830.2 -11831.2 -2625.85 5.75314 97.8968 0.0575314 0.978968
0 0.6 0 8.72654e-08 25041.3 -12011.3 3.49997 0 3.49997 0 0.583328
0.65 0 8.2411e-08 0 -9521.18 22602 3.44314 3.44314 0 0.573856 0
0.648717 0.0408138 8.25174e-08 5.19526e-09 -9532.7 22626.5 -2255.48 96.2985 5.34875 0.962985 0.0534875
0.644875 0.0814666 8.14329e-08 1.04441e-08 -8270.22 22254.9 -3834 94.5298 10.8343 0.945298 0.108343
0.638487 0.121798 8.12404e-08 1.58636e-08 -8175.66 21228.4 -6091.41 92.985 16.285 0.92985 0.16285
0.629579 0.161648 7.95003e-08 2.05938e-08 -7314.9 20426.5 -7650.24 90.175 21.24 0.90175 0.2124
0.618187 0.200861 7.82321e-08 2.55574e-08 -6270.71 19282.8 -9487.75 87.6816 26.4694 0.876816 0.264694
0.604355 0.239281 7.63439e-08 3.01882e-08 -4877.69 18060.1 -10802.1 84.3261 30.9656 0.843261 0.309656
0.588138 0.276757 7.45522e-08 3.50006e-08 -3669.04 16680.8 -12251.6 81.3468 35.9552 0.813468 0.359552
0.569599 0.31314 7.19053e-08 3.94413e-08 -1882.22 14966.3 -13244.7 77.4754 40.3287 0.774754 0.403287
0.548813 0.348287 7.01981e-08 4.38794e-08 -666.415 13547.2 -14426.3 74.5717 44.9023 0.745717 0.449023
0.525861 0.38206 6.63216e-08 4.83796e-08 2064.65 11355 -15159.1 70.0313 49.3811 0.700313 0.493811
0.500834 0.414326 6.36354e-08 5.2301e-08 3303.44 9776.89 -15732.8 66.2957 53.7429 0.662957 0.537429
0.47383 0.444956 5.98484e-08 5.65061e-08 5606.6 7428.14 -16031.2 62.095 58.0415 0.62095 0.580415
0.444956 0.47383 5.65061e-08 5.98484e-08 7428.14 5606.6 -16031.2 58.0415 62.095 0.580415 0.62095
0.414326 0.500834 5.2301e-08 6.36354e-08 9776.89 3303.44 -15732.8 53.7429 66.2958 0.537429 0.662958
0.38206 0.525861 4.83796e-08 6.63216e-08 11355 2064.65 -15159.1 49.3811 70.0313 0.493811 0.700313
0.348287 0.548813 4.38794e-08 7.01981e-08 13547.2 -666.415 -14426.3 44.9023 74.5717 0.449023 0.745717
0.31314 0.569599 3.94413e-08 7.19053e-08 14966.3 -1882.22 -13244.7 40.3287 77.4754 0.403287 0.774754
0.276757 0.588138 3.50006e-08 7.45522e-08 16680.8 -3669.04 -12251.6 35.9552 81.3468 0.359552 0.813468
0.239281 0.604355 3.01882e-08 7.63439e-08 18060.1 -4877.69 -10802.1 30.9656 84.3261 0.309656 0.843261
0.200861 0.618187 2.55574e-08 7.82321e-08 19282.8 -6270.71 -9487.75 26.4694 87.6816 0.264694 0.876816
0.161648 0.629579 2.05938e-08 7.95003e-08 20426.5 -7314.9 -7650.24 21.24 90.175 0.2124 0.90175
0.121798 0.638487 1.58636e-08 8.12404e-08 21228.4 -8175.66 -6091.41 16.285 92.985 0.16285 0.92985
0.0814666 0.644875 1.04441e-08 8.14329e-08 22254.9 -8270.22 -3834.01 10.8343 94.5298 0.108343 0.945298
0.0408139 0.648717 5.19526e-09 8.25174e-08 22626.5 -9532.7 -2255.48 5.34875 96.2985 0.0534875 0.962985
0 0.65 0 8.2411e-08 22602 -9521.18 3.44314 0 3.44314 0 0.573856
0.7 0 7.91146e-08 0 -7031.86 20541.3 3.39595 3.39595 0 0.565991 0
0.698816 0.0407014 7.91945e-08 4.60961e-09 -7116.47 20321.3 -1824.96 94.9694 4.93201 0.949694 0.0493201
0.695267 0.081265 7.83365e-08 9.1733e-09 -6224.82 20021.4 -3390.81 93.3606 9.9267 0.933606 0.099267
0.689365 0.121554 7.79586e-08 1.36624e-08 -6144.45 19780.3 -4648.98 91.9249 14.749 0.919249 0.14749
0.681131 0.161431 7.67365e-08 1.80758e-08 -5515.45 18893.9 -6338.74 89.6861 19.502 0.896861 0.19502
0.670593 0.200762 7.60349e-08 2.27527e-08 -4537.49 18260.4 -7567.32 87.5459 24.1562 0.875459 0.241562
0.657785 0.239414 7.41819e-08 2.69052e-08 -3649.8 17210 -8824.07 84.6408 28.6841 0.846408 0.286841
0.642751 0.277256 7.28495e-08 3.14105e-08 -2587.75 16164.2 -9937.22 81.9763 33.1757 0.819763 0.331757
0.625543 0.314159 7.05487e-08 3.53101e-08 -1374.85 14985.1 -10889.8 78.6149 37.398 0.786149 0.37398
0.606218 0.35 6.89278e-08 3.96089e-08 -350.533 13691.1 -11853.8 75.7168 41.5904 0.757168 0.415904
0.584841 0.384656 6.56182e-08 4.33981e-08 1265.92 12127.8 -12470.7 71.6914 45.8165 0.716914 0.458165
0.561486 0.418011 6.43854e-08 4.70054e-08 1945.02 10838.4 -13145.4 69.0576 49.4025 0.690576 0.494025
0.536231 0.449951 5.97689e-08 5.12161e-08 4686.26 9097.83 -13454.8 64.2087 53.9888 0.642087 0.539888
0.509162 0.480369 5.81705e-08 5.3781e-08 5705.8 7641.17 -13704.8 61.6667 56.961 0.616667 0.56961
0.480369 0.509162 5.3781e-08 5.81705e-08 7641.17 5705.8 -13704.8 56.961 61.6667 0.56961 0.616667
0.449951 0.536231 5.12161e-08 5.97689e-08 9097.83 4686.26 -13454.8 53.9888 64.2087 0.539888 0.642087
0.418011 0.561486 4.70054e-08 6.43854e-08 10838.4 1945.02 -13145.4 49.4025 69.0576 0.494025 0.690576
0.384656 0.584841 4.33981e-08 6.56182e-08 12127.8 1265.92 -12470.7 45.8165 71.6914 0.458165 0.716914
0.35 0.606218 3.96089e-08 6.89278e-08 13691.1 -350.532 -11853.8 41.5904 75.7168 0.415904 0.757168
0.314159 0.625543 3.53101e-08 7.05487e-08 14985.1 -1374.85 -10889.8 37.398 78.6149 0.37398 0.786149
0.277256 0.642751 3.14105e-08 7.28494e-08 16164.2 -2587.75 -9937.22 33.1757 81.9763 0.331757 0.819763
0.239414 0.657785 2.69052e-08 7.41819e-08 17210 -3649.8 -8824.07 28.6841 84.6408 0.286841 0.846408
0.200762 0.670593 2.27527e-08 7.60349e-08 18260.4 -4537.49 -7567.32 24.1562 87.546 0.241562 0.87546
0.161431 0.681131 1.80758e-08 7.67365e-08 18893.9 -5515.45 -6338.74 19.502 89.6861 0.19502 0.896861
0.121554 0.689365 1.36624e-08 7.79586e-08 19780.3 -6144.45 -4648.98 14.749 91.9249 0.14749 0.919249
0.0812651 0.695267 9.1733e-09 7.83365e-08 20021.4 -6224.82 -3390.81 9.9267 93.3607 0.099267 0.933607
0.0407014 0.698816 4.60961e-09 7.91945e-08 20321.3 -7116.47 -1824.96 4.93201 94.9694 0.0493201 0.949694
0 0.7 0 7.91146e-08 20541.3 -7031.86 3.39595 0 3.39595 0 0.565991
0.75 0 7.58139e-08 0 -5286.63 18786.2 3.36471 3.36471 0 0.560785 0
0.7489 0.0406042 7.58757e-08 4.13598e-09 -5366.5 18578.4 -1363.7 94.0923 4.63986 0.940923 0.0463986
0.745603 0.0810893 7.5289e-08 8.22172e-09 -4895.66 18456.4 -2694.51 92.4803 9.19846 0.924803 0.0919846
0.74012 0.121336 7.49134e-08 1.23321e-08 -4477.31 17825.6 -3776.03 91.3559 13.8602 0.913559 0.138602
0.732465 0.161228 7.40512e-08 1.64742e-08 -4139.3 17541.5 -5007.22 89.0862 18.2329 0.890862 0.182329
0.722662 0.200646 7.30296e-08 2.03077e-08 -3658.97 16799 -6210.48 87.1816 22.6952 0.871816 0.226952
0.71074 0.239476 7.16123e-08 2.41485e-08 -2983.36 16006.8 -7254.38 84.2714 26.6755 0.842714 0.266755
0.696733 0.277604 7.04225e-08 2.80111e-08 -2181.95 15284.3 -8239.14 82.0335 30.9675 0.820335 0.309675
0.680682 0.314917 6.86379e-08 3.16523e-08 -1226.4 14244 -9089.44 78.7899 34.6103 0.787899 0.346103
0.662634 0.351306 6.7021e-08 3.54396e-08 -378.08 13311.5 -9848.91 76.2589 38.7902 0.762589 0.387902
0.642643 0.386665 6.49482e-08 3.87925e-08 1001.6 12157.2 -10572.6 72.8799 42.1418 0.728799 0.421418
0.620767 0.42089 6.32032e-08 4.25047e-08 1725.71 11085.6 -11062.4 70.3121 46.1066 0.703121 0.461066
0.59707 0.453881 6.01085e-08 4.56952e-08 3607.19 9756.05 -11720.8 66.387 49.5088 0.66387 0.495088
0.571622 0.48554 5.78925e-08 4.90825e-08 4850.67 8604.25 -11742.6 63.4007 53.2084 0.634007 0.532084
0.544497 0.515775 5.49612e-08 5.20676e-08 5798.98 7275.86 -12132.1 59.9141 56.5236 0.599141 0.565236
0.515775 0.544497 5.20676e-08 5.49612e-08 7275.86 5798.98 -12132.1 56.5236 59.9141 0.565236 0.599141
0.48554 0.571622 4.90825e-08 5.78925e-08 8604.25 4850.67 -11742.6 53.2084 63.4007 0.532084 0.634007
0.453881 0.59707 4.56952e-08 6.01085e-08 9756.05 3607.19 -11720.8 49.5088 66.387 0.495088 0.66387
0.42089 0.620767 4.25048e-08 6.32032e-08 11085.6 1725.71 -11062.4 46.1066 70.3121 0.461066 0.703121
0.386665 0.642643 3.87925e-08 6.49482e-08 12157.2 1001.6 -10572.6 42.1418 72.8799 0.421418 0.728799
0.351306 0.662634 3.54396e-08 6.7021e-08 13311.5 -378.08 -9848.91 38.7902 76.2589 0.387902 0.762589
0.314917 0.680682 3.16523e-08 6.86379e-08 14244 -1226.4 -9089.44 34.6103 78.7899 0.346103 0.787899
0.277604 0.696733 2.80111e-08 7.04225e-08 15284.3 -2181.95 -8239.14 30.9675 82.0336 0.309675 0.820336
0.239476 0.71074 2.41485e-08 7.16123e-08 16006.8 -2983.36 -7254.38 26.6755 84.2714 0.266755 0.842714
0.200646 0.722662 2.03077e-08 7.30296e-08 16799 -3658.97 -6210.48 22.6952 87.1816 0.226952 0.871816
0.161228 0.732465 1.64742e-08 7.40512e-08 17541.5 -4139.3 -5007.22 18.2329 89.0862 0.182329 0.890862
0.121337 0.74012 1.23321e-08 7.49134e-08 17825.6 -4477.31 -3776.03 13.8602 91.3559 0.138602 0.913559
0.0810893 0.745603 8.22172e-09 7.5289e-08 18456.4 -4895.66 -2694.51 9.19846 92.4803 0.0919846 0.924803
0.0406042 0.7489 4.13598e-09 7.58757e-08 18578.4 -5366.5 -1363.7 4.63986 94.0924 0.0463986 0.940924
0 0.75 0 7.58139e-08 18786.2 -5286.63 3.36471 0 3.36471 0 0.560785
0.8 0 7.36533e-08 0 -3664.14 17450 3.32796 3.32796 0 0.55466 0
0.798973 0.0405193 7.37008e-08 3.75801e-09 -3793.86 17044.6 -1232.51 93.0618 4.3333 0.930618 0.043333
0.795895 0.0809347 7.30956e-08 7.38615e-09 -3347.1 17197.8 -2132.28 91.5692 8.65914 0.915692 0.0865914
0.790775 0.121142 7.29414e-08 1.12104e-08 -3457.34 16545.7 -3345.38 90.4864 12.9625 0.904864 0.129625
0.783624 0.161039 7.18943e-08 1.4774e-08 -2803.98 16280.6 -4221.23 88.6468 17.2898 0.886468 0.172898
0.774462 0.200522 7.13524e-08 1.84136e-08 -2466.73 15840.6 -5112.81 86.642 21.1019 0.86642 0.211019
0.763311 0.23949 7.01346e-08 2.19843e-08 -1769.34 15357 -6005.62 84.4035 25.2588 0.844035 0.252588
0.750202 0.277844 6.92179e-08 2.55647e-08 -1187.03 14722.5 -6831.21 82.1567 28.9316 0.821567 0.289316
0.735166 0.315485 6.74605e-08 2.89324e-08 -494.023 13950 -7546.45 79.3761 32.8134 0.793761 0.328134
0.718244 0.352315 6.63662e-08 3.24007e-08 289.185 13270 -8285.58 77.0516 36.2913 0.770516 0.362913
0.699477 0.388242 6.41967e-08 3.56389e-08 1121.29 12292.3 -8814.79 73.9025 39.878 0.739025 0.39878
0.678915 0.423171 6.26845e-08 3.88699e-08 1822.55 11446 -9424.72 71.3765 43.1869 0.713765 0.431869
0.656611 0.457015 6.02255e-08 4.19776e-08 3074.59 10287.4 -9863.52 68.0785 46.58 0.680785 0.4658
0.632621 0.489685 5.85868e-08 4.48026e-08 3766.11 9457.85 -10149.8 65.5352 49.4768 0.655352 0.494768
0.607007 0.521098 5.53212e-08 4.81504e-08 5061.71 8258.08 -10381.6 61.7842 53.3015 0.617842 0.533015
0.579834 0.551174 5.36642e-08 5.03631e-08 6045.72 7293.02 -10464.8 59.5105 55.7275 0.595105 0.557275
0.551174 0.579834 5.03631e-08 5.36642e-08 7293.02 6045.72 -10464.8 55.7275 59.5105 0.557275 0.595105
0.521098 0.607006 4.81504e-08 5.53212e-08 8258.08 5061.71 -10381.6 53.3015 61.7842 0.533015 0.617842
0.489685 0.632621 4.48026e-08 5.85868e-08 9457.85 3766.11 -10149.8 49.4768 65.5352 0.494768 0.655352
0.457015 0.656611 4.19776e-08 6.02255e-08 10287.4 3074.59 -9863.52 46.58 68.0785 0.4658 0.680785
0.423171 0.678915 3.887e-08 6.26845e-08 11446 1822.55 -9424.72 43.1869 71.3765 0.431869 0.713765
0.388242 0.699477 3.56389e-08 6.41967e-08 12292.3 1121.29 -8814.79 39.878 73.9025 0.39878 0.739025
0.352315 0.718244 3.24007e-08 6.63662e-08 13270 289.186 -8285.58 36.2913 77.0516 0.362913 0.770516
0.315485 0.735166 2.89324e-08 6.74605e-08 13950 -494.023 -7546.45 32.8134 79.3761 0.328134 0.793761
0.277844 0.750202 2.55647e-08 6.92179e-08 14722.5 -1187.03 -6831.21 28.9316 82.1567 0.289316 0.821567
0.239491 0.763311 2.19843e-08 7.01346e-08 15357 -1769.34 -6005.62 25.2588 84.4035 0.252588 0.844035
0.200522 0.774462 1.84136e-08 7.13524e-08 15840.6 -2466.73 -5112.81 21.1019 86.642 0.211019 0.86642
0.161039 0.783624 1.4774e-08 7.18943e-08 16280.6 -2803.98 -4221.23 17.2898 88.6468 0.172898 0.886468
0.121142 0.790775 1.12104e-08 7.29414e-08 16545.7 -3457.34 -3345.38 12.9625 90.4864 0.129625 0.904864
0.0809347 0.795895 7.38616e-09 7.30956e-08 17197.8 -3347.1 -2132.28 8.65915 91.5693 0.0865915 0.915693
0.0405194 0.798973 3.75801e-09 7.37008e-08 17044.6 -3793.86 -1232.51 4.3333 93.0618 0.043333 0.930618
0 0.8 0 7.36533e-08 17450 -3664.14 3.32796 0 3.32796 0 0.55466
0.85 0 7.13643e-08 0 -2649.32 16163 3.3066 3.3066 0 0.551101 0
0.849037 0.0404446 7.14021e-08 3.42926e-09 -2724.94 15947.4 -905.272 92.4648 4.16493 0.924648 0.0416493
0.846151 0.0807976 7.1024e-08 6.79498e-09 -2353.98 15922.5 -1817.06 90.8352 8.22734 0.908352 0.0822734
0.841348 0.120968 7.06946e-08 1.02122e-08 -2242.86 15587.5 -2574.97 90.065 12.4011 0.90065 0.124011
0.834639 0.160864 7.01602e-08 1.36798e-08 -1966.46 15250.6 -3538.31 87.9289 16.2211 0.879289 0.162211
0.82604 0.200395 6.93751e-08 1.68289e-08 -1613.49 14807 -4276.8 86.4788 20.2483 0.864788 0.202483
0.815569 0.239473 6.83965e-08 2.01399e-08 -1232.84 14413.9 -5101.88 83.9918 23.7959 0.839918 0.237959
0.803251 0.278008 6.73042e-08 2.3254e-08 -891.906 13851.4 -5785.2 82.0301 27.5682 0.820301 0.275682
0.789113 0.315913 6.61249e-08 2.64494e-08 -231.07 13322.7 -6489.73 79.3619 30.8548 0.793619 0.308548
0.773187 0.353103 6.48564e-08 2.95722e-08 279.478 12709.9 -7037.09 77.2294 34.4112 0.772294 0.344112
0.75551 0.389493 6.3244e-08 3.254e-08 1037.47 11986.9 -7636.28 74.2638 37.467 0.742638 0.37467
0.736122 0.425 6.19279e-08 3.5668e-08 1787.17 11329.9 -8020.43 72.2194 40.8839 0.722194 0.408839
0.715066 0.459545 5.995e-08 3.83691e-08 2741.67 10525.1 -8557.37 69.0215 43.6196 0.690215 0.436196
0.69239 0.493048 5.83131e-08 4.14561e-08 3495.82 9632.04 -8736.96 66.895 47.0006 0.66895 0.470006
0.668145 0.525435 5.5855e-08 4.38088e-08 4046.51 8794.61 -9349.56 63.3672 49.4216 0.633672 0.494216
0.642387 0.556632 5.39391e-08 4.678e-08 5598.46 8040.69 -9116.24 61.155 52.699 0.61155 0.52699
0.615174 0.586567 5.16103e-08 4.90846e-08 6054.51 7154.16 -9449.13 58.147 55.3492 0.58147 0.553492
0.586567 0.615174 4.90846e-08 5.16103e-08 7154.16 6054.51 -9449.13 55.3492 58.147 0.553492 0.58147
0.556632 0.642387 4.678e-08 5.39391e-08 8040.69 5598.46 -9116.24 52.699 61.155 0.52699 0.61155
0.525435 0.668145 4.38088e-08 5.5855e-08 8794.61 4046.51 -9349.56 49.4216 63.3672 0.494216 0.633672
0.493048 0.69239 4.14561e-08 5.83131e-08 9632.04 3495.82 -8736.97 47.0006 66.895 0.470006 0.66895
0.459545 0.715065 3.83691e-08 5.995e-08 10525.1 2741.67 -8557.38 43.6196 69.0215 0.436196 0.690215
0.425 0.736122 3.5668e-08 6.19279e-08 11329.9 1787.17 -8020.43 40.8839 72.2194 0.408839 0.722194
0.389493 0.75551 3.254e-08 6.3244e-08 11986.9 1037.47 -7636.29 37.467 74.2639 0.37467 0.742639
0.353103 0.773187 2.95722e-08 6.48564e-08 12709.9 279.479 -7037.09 34.4112 77.2294 0.344112 0.772294
0.315913 0.789113 2.64494e-08 6.61249e-08 13322.7 -231.07 -6489.73 30.8549 79.3619 0.308549 0.793619
0.278008 0.803251 2.3254e-08 6.73042e-08 13851.4 -891.905 -5785.2 27.5682 82.0301 0.275682 0.820301
0.239473 0.815569 2.01399e-08 6.83965e-08 14413.9 -1232.84 -5101.88 23.7959 83.9918 0.237959 0.839918
0.200395 0.82604 1.68289e-08 6.93751e-08 14807 -1613.49 -4276.8 20.2483 86.4788 0.202483 0.864788
0.160864 0.834639 1.36798e-08 7.01602e-08 15250.6 -1966.46 -3538.31 16.2211 87.9289 0.162211 0.879289
0.120968 0.841348 1.02122e-08 7.06946e-08 15587.5 -2242.86 -2574.97 12.4012 90.065 0.124012 0.90065
0.0807977 0.846151 6.79498e-09 7.1024e-08 15922.5 -2353.98 -1817.06 8.22734 90.8352 0.0822734 0.908352
0.0404447 0.849037 3.42927e-09 7.14021e-08 15947.4 -2724.94 -905.272 4.16493 92.4648 0.0416493 0.924648
0 0.85 0 7.13643e-08 16163 -2649.32 3.30661 0 3.30661 0 0.551101
0.9 0 6.99042e-08 0 -1429.71 15255.6 3.2693 3.2693 0 0.544883 0
0.899094 0.0403783 6.99331e-08 3.16657e-09 -1539.15 14908.7 -828.753 91.4224 4.05436 0.914224 0.0405436
0.896377 0.0806754 6.9516e-08 6.2167e-09 -1322.16 15101.4 -1475.32 89.9336 8.02552 0.899336 0.0802552
0.891855 0.12081 6.93794e-08 9.46951e-09 -1399.41 14572.1 -2314.09 89.0778 11.9519 0.890778 0.119519
0.885537 0.160701 6.86391e-08 1.24607e-08 -1001.43 14467.4 -2978.19 87.4465 15.9308 0.874465 0.159308
0.877435 0.200269 6.81567e-08 1.55631e-08 -797.711 14096.1 -3659.5 85.6912 19.3145 0.856912 0.193145
0.867567 0.239433 6.71864e-08 1.85727e-08 -373.051 13806.6 -4282.77 83.6463 23.1166 0.836463 0.231166
0.855951 0.278115 6.65004e-08 2.15678e-08 49.4595 13373.3 -4897.04 81.7305 26.2997 0.817305 0.262997
0.842611 0.316237 6.52684e-08 2.45186e-08 512.867 12968.9 -5427.06 79.4388 29.8023 0.794388 0.298023
0.827575 0.353723 6.42502e-08 2.73756e-08 945.652 12459.8 -6008.6 77.2802 32.7773 0.772802 0.327773
0.810872 0.390495 6.28232e-08 3.02895e-08 1563.58 11893.5 -6413.01 74.8357 36.0385 0.748357 0.360385
0.792536 0.426482 6.15911e-08 3.29854e-08 2078.76 11404.7 -6933.15 72.6021 38.7561 0.726021 0.387561
0.772604 0.461609 5.98167e-08 3.58261e-08 2721.67 10597.8 -7239.7 69.9208 41.8862 0.699208 0.418862
0.751116 0.495807 5.84061e-08 3.83384e-08 3400.06 10123.5 -7586.47 67.7572 44.3923 0.677572 0.443923
0.728115 0.529007 5.65061e-08 4.10577e-08 3868.37 9172.09 -7936.79 64.9751 47.293 0.649751 0.47293
0.703648 0.561141 5.4578e-08 4.3381e-08 5033.39 8686.72 -8164.5 62.4544 49.5836 0.624544 0.495836
0.677764 0.592145 5.24862e-08 4.59481e-08 5620.48 7821.67 -8226.61 59.9526 52.5323 0.599526 0.525323
0.650515 0.621956 5.04895e-08 4.81176e-08 6342.69 7183.07 -8353.09 57.5415 54.8087 0.575415 0.548087
0.621956 0.650515 4.81176e-08 5.04895e-08 7183.07 6342.69 -8353.09 54.8087 57.5415 0.548087 0.575415
0.592145 0.677764 4.59481e-08 5.24862e-08 7821.67 5620.48 -8226.61 52.5323 59.9526 0.525323 0.599526
0.561141 0.703648 4.3381e-08 5.4578e-08 8686.72 5033.39 -8164.5 49.5836 62.4544 0.495836 0.624544
0.529007 0.728115 4.10577e-08 5.65061e-08 9172.09 3868.37 -7936.79 47.293 64.9751 0.47293 0.649751
0.495807 0.751116 3.83384e-08 5.84061e-08 10123.5 3400.06 -7586.47 44.3923 67.7573 0.443923 0.677573
0.461609 0.772604 3.58261e-08 5.98167e-08 10597.8 2721.67 -7239.7 41.8862 69.9208 0.418862 0.699208
0.426482 0.792536 3.29854e-08 6.15911e-08 11404.7 2078.76 -6933.15 38.7561 72.6021 0.387561 0.726021
0.390495 0.810872 3.02895e-08 6.28232e-08 11893.5 1563.58 -6413.01 36.0385 74.8357 0.360385 0.748357
0.353723 0.827575 2.73756e-08 6.42502e-08 12459.8 945.652 -6008.6 32.7773 77.2803 0.327773 0.772803
0.316237 0.842611 2.45186e-08 6.52684e-08 12968.9 512.867 -5427.06 29.8023 79.4389 0.298023 0.794389
0.278115 0.855951 2.15678e-08 6.65004e-08 13373.3 49.4598 -4897.04 26.2997 81.7305 0.262997 0.817305
0.239433 0.867567 1.85727e-08 6.71864e-08 13806.6 -373.051 -4282.78 23.1166 83.6464 0.231166 0.836464
0.200269 0.877435 1.55631e-08 6.81567e-08 14096.1 -797.711 -3659.5 19.3145 85.6912 0.193145 0.856912
0.160701 0.885537 1.24607e-08 6.86391e-08 14467.4 -1001.43 -2978.19 15.9308 87.4465 0.159308 0.874465
0.12081 0.891855 9.46951e-09 6.93794e-08 14572.1 -1399.41 -2314.09 11.9519 89.0778 0.119519 0.890778
0.0806754 0.896377 6.2167e-09 6.9516e-08 15101.4 -1322.16 -1475.32 8.02553 89.9336 0.0802553 0.899336
0.0403784 0.899094 3.16657e-09 6.99331e-08 14908.7 -1539.15 -828.754 4.05437 91.4224 0.0405437 0.914224
0 0.9 0 6.99042e-08 15255.6 -1429.71 3.2693 0 3.2693 0 0.544883
0.95 0 6.83611e-08 0 -793.855 14420.9 3.2454 3.2454 0 0.540901 0
0.949144 0.0403191 6.83847e-08 2.95519e-09 -886.954 14128.3 -625.081 90.7568 4.08706 0.907568 0.0408706
0.946578 0.0805656 6.80916e-08 5.81102e-09 -547.632 14242.2 -1247.02 89.004 7.92558 0.89004 0.0792558
0.942305 0.120667 6.78206e-08 8.7919e-09 -587.8 13932.1 -1775.61 88.6279 11.8052 0.886279 0.118052
0.936335 0.160551 6.74355e-08 1.17091e-08 -322.109 13672.9 -2530.03 86.492 15.256 0.86492 0.15256
0.928677 0.200145 6.68e-08 1.44665e-08 -161.104 13388.7 -3010.23 85.2601 19.0824 0.852601 0.190824
0.919346 0.239379 6.61171e-08 1.7282e-08 196.759 13102 -3693.12 83.0567 22.2385 0.830567 0.222385
0.908358 0.278182 6.5266e-08 1.99845e-08 309.174 12676 -4188.86 81.4879 25.6473 0.814879 0.256473
0.895734 0.316483 6.42664e-08 2.27277e-08 656.452 12364.1 -4791.37 79.0403 28.5816 0.790403 0.285816
0.881495 0.354214 6.33109e-08 2.54281e-08 995.161 11863.4 -5165.16 77.2951 31.7242 0.772951 0.317242
0.865667 0.391306 6.20864e-08 2.80412e-08 1516.26 11515.9 -5679.88 74.7314 34.3995 0.747314 0.343995
0.84828 0.427694 6.09745e-08 3.0706e-08 1919.08 10951.1 -6003.68 72.9061 37.3512 0.729061 0.373512
0.829363 0.46331 5.95037e-08 3.32067e-08 2617.94 10568.1 -6381.71 70.2583 39.8137 0.702583 0.398137
0.808953 0.498092 5.8324e-08 3.58009e-08 3201.61 9982.77 -6618.14 68.5225 42.5855 0.685225 0.425855
0.787084 0.531976 5.65016e-08 3.81315e-08 3760.22 9456.59 -6959.53 65.7103 44.917 0.657103 0.44917
0.763797 0.564902 5.51671e-08 4.06725e-08 4578.23 8865.65 -7133.91 64.1861 47.6666 0.641861 0.476666
0.739134 0.596809 5.28588e-08 4.26721e-08 4917.55 8040.99 -7552.18 60.7322 49.4752 0.607322 0.494752
0.713139 0.627641 5.13402e-08 4.51284e-08 5788.57 7747.19 -7321.19 59.2577 52.1441 0.592577 0.521441
0.685858 0.657342 4.92024e-08 4.71559e-08 6317.47 6907.82 -7568.82 56.5046 54.3888 0.565046 0.543888
0.657342 0.685858 4.71559e-08 4.92024e-08 6907.82 6317.48 -7568.82 54.3888 56.5046 0.543888 0.565046
0.627641 0.713139 4.51284e-08 5.13402e-08 7747.19 5788.57 -7321.19 52.1441 59.2577 0.521441 0.592577
0.596809 0.739134 4.26721e-08 5.28588e-08 8040.99 4917.55 -7552.18 49.4752 60.7322 0.494752 0.607322
0.564902 0.763797 4.06725e-08 5.51671e-08 8865.65 4578.23 -7133.91 47.6666 64.1861 0.476666 0.641861
0.531976 0.787084 3.81315e-08 5.65016e-08 9456.59 3760.22 -6959.53 44.917 65.7103 0.44917 0.657103
0.498092 0.808953 3.58009e-08 5.8324e-08 9982.77 3201.61 -6618.14 42.5855 68.5225 0.425855 0.685225
0.46331 0.829363 3.32067e-08 5.95037e-08 10568.1 2617.94 -6381.71 39.8137 70.2583 0.398137 0.702583
0.427694 0.84828 3.0706e-08 6.09745e-08 10951.1 1919.08 -6003.68 37.3512 72.9061 0.373512 0.729061
0.391306 0.865667 2.80412e-08 6.20864e-08 11515.9 1516.26 -5679.88 34.3995 74.7314 0.343995 0.747314
0.354214 0.881495 2.54281e-08 6.33109e-08 11863.4 995.161 -5165.16 31.7242 77.2951 0.317242 0.772951
0.316483 0.895734 2.27277e-08 6.42664e-08 12364.1 656.452 -4791.37 28.5816 79.0404 0.285816 0.790404
0.278182 0.908358 1.99845e-08 6.5266e-08 12676 309.175 -4188.86 25.6473 81.4879 0.256473 0.814879
0.239379 0.919346 1.7282e-08 6.61171e-08 13102 196.759 -3693.12 22.2385 83.0568 0.222385 0.830568
0.200145 0.928677 1.44665e-08 6.68e-08 13388.7 -161.104 -3010.23 19.0824 85.2601 0.190824 0.852601
0.160551 0.936335 1.17091e-08 6.74355e-08 13672.9 -322.109 -2530.03 15.256 86.492 0.15256 0.86492
0.120667 0.942305 8.7919e-09 6.78206e-08 13932.1 -587.8 -1775.61 11.8052 88.6279 0.118052 0.886279
0.0805657 0.946578 5.81103e-09 6.80916e-08 14242.2 -547.632 -1247.02 7.92559 89.004 0.0792559 0.89004
0.0403192 0.949144 2.9552e-09 6.83847e-08 14128.3 -886.953 -625.081 4.08706 90.7568 0.0408706 0.907568
0 0.95 0 6.83611e-08 14420.9 -793.854 3.2454 0 3.2454 0 0.540901
1 0 6.73441e-08 0 93.0946 13869.8 3.19722 3.19722 0 0.532871 0
0.999189 0.0402659 6.73623e-08 2.78677e-09 18.9398 13617.5 -548.94 3.1792 0.171761 0.529867 0.0286268
0.996757 0.0804666 6.70983e-08 5.48701e-09 84.7906 13488.2 -1089.18 3.12656 0.296004 0.521093 0.049334
0.992709 0.120537 6.68628e-08 8.23124e-09 192.851 13289.6 -1614.08 3.11033 0.4239 0.518388 0.0706501
0.98705 0.160411 6.64776e-08 1.08818e-08 349.652 13352 -2170.49 3.04624 0.562007 0.507706 0.0936678
0.979791 0.200026 6.59584e-08 1.35851e-08 540.479 13038 -2662.4 2.99318 0.668689 0.498864 0.111448
0.970942 0.239316 6.532e-08 1.6182e-08 774.509 12795.2 -3154.55 2.9307 0.791812 0.48845 0.131969
0.960518 0.278217 6.4574e-08 1.87905e-08 1043.75 12472.9 -3613.74 2.86811 0.89429 0.478018 0.149048
0.948536 0.316668 6.36995e-08 2.13254e-08 1349.18 12128.4 -4050.13 2.79718 1.00535 0.466197 0.167559
0.935016 0.354605 6.27989e-08 2.38153e-08 1694.51 11798.5 -4475.76 2.72902 1.09803 0.454837 0.183005
0.919979 0.391967 6.17664e-08 2.63284e-08 2069.04 11410.8 -4862.99 2.65408 1.19931 0.442347 0.199886
0.90345 0.428693 6.07002e-08 2.87328e-08 2487.62 11058.1 -5248.58 2.5836 1.2835 0.430599 0.213917
0.885456 0.464723 5.94873e-08 3.12018e-08 2905.51 10555.3 -5541.38 2.50688 1.37765 0.417813 0.229608
0.866025 0.5 5.82946e-08 3.34895e-08 3403.15 10215 -5899.3 2.43787 1.45373 0.406311 0.242289
0.84519 0.534466 5.68465e-08 3.596e-08 3873.56 9690.87 -6129.97 2.3597 1.54465 0.393283 0.257441
0.822984 0.568065 5.54719e-08 3.80438e-08 4416.79 9273.31 -6402.86 2.29498 1.61063 0.382497 0.268439
0.799443 0.600742 5.38842e-08 4.05651e-08 5046.27 8938.6 -6719.06 2.21871 1.71135 0.369784 0.285224
0.774605 0.632445 5.18536e-08 4.23715e-08 5182.86 7776.01 -6351.19 2.11771 1.7641 0.352951 0.294017
0.748511 0.663123 5.04944e-08 4.45359e-08 5978.96 7618.64 -6751.99 2.07625 1.83933 0.346042 0.306555
0.721202 0.692724 4.83441e-08 4.65785e-08 6503.83 7049.78 -6774.06 1.97782 1.92066 0.329637 0.32011
0.692724 0.721202 4.65785e-08 4.83441e-08 7049.77 6503.83 -6774.06 1.92066 1.97782 0.32011 0.329637
0.663123 0.748511 4.45359e-08 5.04944e-08 7618.64 5978.96 -6751.99 1.83933 2.07625 0.306555 0.346042
0.632445 0.774605 4.23715e-08 5.18536e-08 7776.01 5182.85 -6351.19 1.7641 2.11771 0.294017 0.352951
0.600742 0.799443 4.05651e-08 5.38842e-08 8938.6 5046.27 -6719.06 1.71135 2.21871 0.285224 0.369785
0.568065 0.822984 3.80438e-08 5.54719e-08 9273.31 4416.79 -6402.86 1.61063 2.29499 0.268439 0.382498
0.534466 0.84519 3.596e-08 5.68465e-08 9690.87 3873.56 -6129.97 1.54465 2.3597 0.257441 0.393283
0.5 0.866025 3.34895e-08 5.82946e-08 10215 3403.15 -5899.3 1.45373 2.43787 0.242289 0.406311
0.464723 0.885456 3.12018e-08 5.94873e-08 10555.3 2905.51 -5541.38 1.37765 2.50688 0.229608 0.417813
0.428693 0.90345 2.87328e-08 6.07002e-08 11058.1 2487.62 -5248.58 1.2835 2.5836 0.213917 0.430599
0.391967 0.919979 2.63284e-08 6.17664e-08 11410.8 2069.04 -4862.99 1.19931 2.65408 0.199886 0.442347
0.354605 0.935016 2.38153e-08 6.27989e-08 11798.5 1694.51 -4475.76 1.09803 2.72902 0.183005 0.454837
0.316668 0.948536 2.13254e-08 6.36995e-08 12128.4 1349.18 -4050.13 1.00535 2.79718 0.167559 0.466197
0.278217 0.960518 1.87905e-08 6.4574e-08 12472.9 1043.75 -3613.74 0.89429 2.86811 0.149048 0.478018
0.239316 0.970942 1.6182e-08 6.532e-08 12795.2 774.509 -3154.55 0.791812 2.9307 0.131969 0.48845
0.200026 0.979791 1.35851e-08 6.59584e-08 13038 540.479 -2662.4 0.66869 2.99318 0.111448 0.498864
0.160411 0.98705 1.08818e-08 6.64776e-08 13352 349.652 -2170.49 0.562007 3.04624 0.0936678 0.507706
0.120537 0.992709 8.23124e-09 6.68628e-08 13289.6 192.851 -1614.08 0.423901 3.11033 0.0706501 0.518388
0.0804666 0.996757 5.48702e-09 6.70983e-08 13488.2 84.7907 -1089.18 0.296004 3.12656 0.049334 0.521093
0.040266 0.999189 2.78678e-09 6.73623e-08 13617.5 18.9398 -548.941 0.171761 3.1792 0.0286268 0.529867
0 1 0 6.73441e-08 13869.8 93.0949 3.19723 0 3.19723 0 0.532871
